50
100 100
1 80 410
2 79 707
3 79 575
4 78 486
5 74 595
6 74 675
7 73 728
8 73 240
9 73 537
10 73 101
11 72 506
12 72 914
13 72 56
14 69 168
15 68 152
16 67 64
17 67 824
18 66 383
19 65 199
20 63 710
21 62 491
22 60 108
23 59 989
24 57 187
25 54 991
26 54 440
27 53 801
28 50 321
29 50 451
30 50 443
31 47 490
32 46 169
33 46 734
34 46 507
35 46 476
36 45 15
37 45 18
38 43 66
39 43 894
40 41 629
41 39 410
42 38 780
43 38 319
44 35 701
45 33 177
46 33 889
47 31 879
48 27 651
49 26 526
50 24 293
